Sudoku = array2d(1..9, 1..9, [
    0,7,0,8,9,0,1,5,2,
    6,5,0,4,0,0,0,0,7,
    0,0,0,0,7,0,4,0,3,
    3,0,0,2,0,0,0,0,0,
    8,0,5,7,6,0,0,0,0,
    0,2,0,0,0,0,0,0,8,
    5,3,7,0,0,0,0,8,0,
    2,8,9,3,0,0,0,0,0,
    0,4,6,0,0,0,0,0,0, 
    ]);